2023/05/23
Julia is now 1.9.0
previous version was 1.7.2
2023/11/29
gurobi is now 11.0.0
previous version was 10.0.2
solving instance transportation 2 1 cubic
presolving:
(round 1, fast)       2 del vars, 2 del conss, 0 add conss, 8 chg bounds, 0 chg sides, 0 chg coeffs, 0 upgd conss, 0 impls, 0 clqs
(round 2, exhaustive) 2 del vars, 2 del conss, 0 add conss, 8 chg bounds, 0 chg sides, 0 chg coeffs, 2 upgd conss, 0 impls, 0 clqs
   (1.0s) probing cycle finished: starting next cycle
(round 3, exhaustive) 2 del vars, 2 del conss, 0 add conss, 10 chg bounds, 0 chg sides, 0 chg coeffs, 2 upgd conss, 16 impls, 1 clqs
   (1.0s) probing cycle finished: starting next cycle
   (1.0s) symmetry computation started: requiring (bin +, int -, cont -), (fixed: bin -, int +, cont +)
   (1.0s) no symmetry present
presolving (4 rounds: 4 fast, 3 medium, 3 exhaustive):
 2 deleted vars, 2 deleted constraints, 0 added constraints, 10 tightened bounds, 0 added holes, 0 changed sides, 0 changed coefficients
 16 implications, 1 cliques
presolved problem has 10 variables (2 bin, 0 int, 0 impl, 8 cont) and 10 constraints
      2 constraints of type <varbound>
      4 constraints of type <linear>
      4 constraints of type <nonlinear>
Presolving Time: 1.04

 time | node  | left  |LP iter|LP it/n|mem/heur|mdpt |vars |cons |rows |cuts |sepa|confs|strbr|  dualbound   | primalbound  |  gap   | compl. 
t 1.0s|     1 |     0 |    28 |     - |  trysol|   0 |  22 |  10 |  26 |   0 |  0 |   0 |   0 |-2.020740e+02 | 1.790316e+02 |    Inf | unknown
  1.0s|     1 |     0 |    50 |     - |   897k |   0 |  22 |  10 |  26 |   0 |  0 |   0 |   0 | 5.639076e+01 | 1.790316e+02 | 217.48%| unknown
  1.1s|     1 |     0 |    52 |     - |   957k |   0 |  22 |  10 |  28 |   2 |  1 |   0 |   0 | 7.670326e+01 | 1.790316e+02 | 133.41%| unknown
  1.1s|     1 |     0 |    54 |     - |   961k |   0 |  22 |  10 |  30 |   4 |  2 |   0 |   0 | 7.836576e+01 | 1.790316e+02 | 128.46%| unknown
  1.1s|     1 |     0 |    56 |     - |   965k |   0 |  22 |  10 |  32 |   6 |  3 |   0 |   0 | 7.922668e+01 | 1.790316e+02 | 125.97%| unknown
  1.1s|     1 |     0 |    59 |     - |   969k |   0 |  22 |  10 |  34 |   8 |  4 |   0 |   0 | 7.962633e+01 | 1.790316e+02 | 124.84%| unknown
  1.1s|     1 |     0 |    62 |     - |   974k |   0 |  22 |  10 |  36 |  10 |  5 |   0 |   0 | 7.978405e+01 | 1.790316e+02 | 124.40%| unknown
  1.1s|     1 |     0 |    63 |     - |   976k |   0 |  22 |  10 |  38 |  12 |  6 |   0 |   0 | 7.979910e+01 | 1.790316e+02 | 124.35%| unknown
  1.1s|     1 |     0 |    65 |     - |   976k |   0 |  22 |  10 |  40 |  14 |  7 |   0 |   0 | 7.980133e+01 | 1.790316e+02 | 124.35%| unknown
  1.1s|     1 |     0 |    66 |     - |   976k |   0 |  22 |  10 |  42 |  16 |  8 |   0 |   0 | 7.980165e+01 | 1.790316e+02 | 124.35%| unknown
  1.1s|     1 |     0 |    67 |     - |   976k |   0 |  22 |  10 |  44 |  18 |  9 |   0 |   0 | 7.980259e+01 | 1.790316e+02 | 124.34%| unknown
  1.1s|     1 |     0 |    69 |     - |   976k |   0 |  22 |  10 |  46 |  20 | 10 |   0 |   0 | 7.980315e+01 | 1.790316e+02 | 124.34%| unknown
  1.1s|     1 |     0 |    70 |     - |   976k |   0 |  22 |  10 |  48 |  22 | 11 |   0 |   0 | 7.980344e+01 | 1.790316e+02 | 124.34%| unknown
  1.1s|     1 |     0 |    71 |     - |   978k |   0 |  22 |  10 |  50 |  24 | 12 |   0 |   0 | 7.980350e+01 | 1.790316e+02 | 124.34%| unknown
  1.1s|     1 |     0 |    73 |     - |   978k |   0 |  22 |  10 |  52 |  26 | 13 |   0 |   0 | 7.980360e+01 | 1.790316e+02 | 124.34%| unknown
 time | node  | left  |LP iter|LP it/n|mem/heur|mdpt |vars |cons |rows |cuts |sepa|confs|strbr|  dualbound   | primalbound  |  gap   | compl. 
  1.1s|     1 |     0 |    73 |     - |   979k |   0 |  22 |  10 |  50 |  26 | 13 |   0 |   0 | 7.980360e+01 | 1.790316e+02 | 124.34%| unknown
  1.1s|     1 |     0 |    76 |     - |   985k |   0 |  22 |  10 |  51 |  27 | 14 |   0 |   0 | 7.980367e+01 | 1.790316e+02 | 124.34%| unknown
  1.1s|     1 |     0 |   147 |     - |   986k |   0 |  22 |   9 |  51 |  27 | 16 |   0 |   0 | 7.980367e+01 | 1.790316e+02 | 124.34%| unknown
  1.1s|     1 |     0 |   159 |     - |   986k |   0 |  22 |   9 |  42 |  31 | 17 |   0 |   0 | 1.029207e+02 | 1.790316e+02 |  73.95%| unknown
  1.1s|     1 |     0 |   161 |     - |   986k |   0 |  22 |   9 |  44 |  33 | 18 |   0 |   0 | 1.029455e+02 | 1.790316e+02 |  73.91%| unknown
  1.1s|     1 |     0 |   163 |     - |   986k |   0 |  22 |   9 |  45 |  34 | 19 |   0 |   0 | 1.030186e+02 | 1.790316e+02 |  73.79%| unknown
  1.1s|     1 |     0 |   163 |     - |   986k |   0 |  22 |   9 |  44 |  34 | 19 |   0 |   0 | 1.030186e+02 | 1.790316e+02 |  73.79%| unknown
  1.1s|     1 |     0 |   164 |     - |   986k |   0 |  22 |   9 |  48 |  38 | 20 |   0 |   0 | 1.030565e+02 | 1.790316e+02 |  73.72%| unknown
  1.1s|     1 |     0 |   168 |     - |   986k |   0 |  22 |   9 |  52 |  42 | 21 |   0 |   0 | 1.030878e+02 | 1.790316e+02 |  73.67%| unknown
  1.1s|     1 |     0 |   170 |     - |   986k |   0 |  22 |   9 |  56 |  46 | 22 |   0 |   0 | 1.030882e+02 | 1.790316e+02 |  73.67%| unknown
  1.1s|     1 |     0 |   172 |     - |   986k |   0 |  22 |   9 |  51 |  50 | 23 |   0 |   0 | 1.030884e+02 | 1.790316e+02 |  73.67%| unknown
  1.1s|     1 |     0 |   175 |     - |   986k |   0 |  22 |   9 |  54 |  53 | 24 |   0 |   0 | 1.030885e+02 | 1.790316e+02 |  73.67%| unknown
  1.1s|     1 |     0 |   177 |     - |   986k |   0 |  22 |   9 |  56 |  55 | 25 |   0 |   0 | 1.030885e+02 | 1.790316e+02 |  73.67%| unknown
  1.1s|     1 |     0 |   178 |     - |   986k |   0 |  22 |   9 |  58 |  57 | 26 |   0 |   0 | 1.030885e+02 | 1.790316e+02 |  73.67%| unknown
  1.1s|     1 |     0 |   178 |     - |   986k |   0 |  22 |   8 |  58 |  57 | 28 |   0 |   0 | 1.030885e+02 | 1.790316e+02 |  73.67%| unknown
(run 1, node 1) restarting after 2 global fixings of integer variables

presolving:
(round 1, fast)       14 del vars, 0 del conss, 0 add conss, 0 chg bounds, 0 chg sides, 0 chg coeffs, 0 upgd conss, 16 impls, 0 clqs
presolving (2 rounds: 2 fast, 1 medium, 1 exhaustive):
 14 deleted vars, 0 deleted constraints, 0 added constraints, 0 tightened bounds, 0 added holes, 0 changed sides, 0 changed coefficients
 16 implications, 0 cliques
presolved problem has 8 variables (0 bin, 0 int, 0 impl, 8 cont) and 8 constraints
      4 constraints of type <linear>
      4 constraints of type <nonlinear>
Presolving Time: 1.04

 time | node  | left  |LP iter|LP it/n|mem/heur|mdpt |vars |cons |rows |cuts |sepa|confs|strbr|  dualbound   | primalbound  |  gap   | compl. 
  1.1s|     1 |     0 |   203 |     - |   987k |   0 |  20 |   8 |  24 |   0 |  0 |   0 |   0 | 1.030885e+02 | 1.790316e+02 |  73.67%| unknown
  1.1s|     1 |     0 |   204 |     - |   987k |   0 |  20 |   8 |  28 |   4 |  1 |   0 |   0 | 1.030885e+02 | 1.790316e+02 |  73.67%| unknown
  1.1s|     1 |     0 |   205 |     - |   987k |   0 |  20 |   8 |  32 |   8 |  2 |   0 |   0 | 1.030885e+02 | 1.790316e+02 |  73.67%| unknown
  1.1s|     1 |     0 |   206 |     - |   987k |   0 |  20 |   8 |  36 |  12 |  3 |   0 |   0 | 1.030885e+02 | 1.790316e+02 |  73.67%| unknown
  1.1s|     1 |     0 |   207 |     - |   987k |   0 |  20 |   8 |  40 |  16 |  4 |   0 |   0 | 1.030885e+02 | 1.790316e+02 |  73.67%| unknown
  1.1s|     1 |     0 |   208 |     - |   987k |   0 |  20 |   8 |  44 |  20 |  5 |   0 |   0 | 1.030885e+02 | 1.790316e+02 |  73.67%| unknown
  1.1s|     1 |     0 |   212 |     - |   987k |   0 |  20 |   8 |  48 |  24 |  6 |   0 |   0 | 1.030885e+02 | 1.790316e+02 |  73.67%| unknown
  1.1s|     1 |     0 |   217 |     - |   987k |   0 |  20 |   8 |  52 |  28 |  7 |   0 |   0 | 1.030885e+02 | 1.790316e+02 |  73.67%| unknown
  1.1s|     1 |     0 |   221 |     - |   987k |   0 |  20 |   8 |  56 |  32 |  8 |   0 |   0 | 1.030885e+02 | 1.790316e+02 |  73.67%| unknown
  1.1s|     1 |     0 |   223 |     - |   987k |   0 |  20 |   8 |  59 |  35 |  9 |   0 |   0 | 1.030885e+02 | 1.790316e+02 |  73.67%| unknown
  1.1s|     1 |     0 |   226 |     - |   987k |   0 |  20 |   8 |  61 |  37 | 10 |   0 |   0 | 1.030885e+02 | 1.790316e+02 |  73.67%| unknown
  1.1s|     1 |     0 |   227 |     - |   987k |   0 |  20 |   8 |  63 |  39 | 11 |   0 |   0 | 1.030885e+02 | 1.790316e+02 |  73.67%| unknown
  1.1s|     1 |     0 |   316 |     - |   988k |   0 |  20 |   8 |  63 |  39 | 13 |   0 |   0 | 1.030885e+02 | 1.790316e+02 |  73.67%| unknown
  1.1s|     1 |     0 |   360 |     - |   988k |   0 |  20 |   8 |  67 |  43 | 14 |   0 |   0 | 1.291404e+02 | 1.790316e+02 |  38.63%| unknown
  1.1s|     1 |     0 |   361 |     - |   988k |   0 |  20 |   8 |  52 |  47 | 15 |   0 |   0 | 1.291449e+02 | 1.790316e+02 |  38.63%| unknown
 time | node  | left  |LP iter|LP it/n|mem/heur|mdpt |vars |cons |rows |cuts |sepa|confs|strbr|  dualbound   | primalbound  |  gap   | compl. 
  1.1s|     1 |     0 |   362 |     - |   988k |   0 |  20 |   8 |  56 |  51 | 16 |   0 |   0 | 1.291470e+02 | 1.790316e+02 |  38.63%| unknown
  1.1s|     1 |     0 |   363 |     - |   988k |   0 |  20 |   8 |  60 |  55 | 17 |   0 |   0 | 1.291481e+02 | 1.790316e+02 |  38.62%| unknown
  1.1s|     1 |     0 |   367 |     - |   988k |   0 |  20 |   8 |  64 |  59 | 18 |   0 |   0 | 1.291486e+02 | 1.790316e+02 |  38.62%| unknown
  1.1s|     1 |     0 |   368 |     - |   988k |   0 |  20 |   8 |  67 |  62 | 19 |   0 |   0 | 1.291486e+02 | 1.790316e+02 |  38.62%| unknown
  1.1s|     1 |     0 |   369 |     - |   988k |   0 |  20 |   8 |  69 |  64 | 20 |   0 |   0 | 1.291486e+02 | 1.790316e+02 |  38.62%| unknown
  1.1s|     1 |     0 |   370 |     - |   988k |   0 |  20 |   8 |  53 |  66 | 21 |   0 |   0 | 1.291486e+02 | 1.790316e+02 |  38.62%| unknown
  1.2s|     1 |     0 |   374 |     - |   989k |   0 |  20 |   8 |  57 |  70 | 23 |   0 |   0 | 1.291487e+02 | 1.790316e+02 |  38.62%| unknown
  1.2s|     1 |     0 |   375 |     - |   989k |   0 |  20 |   8 |  61 |  74 | 25 |   0 |   0 | 1.291487e+02 | 1.790316e+02 |  38.62%| unknown
  1.2s|     1 |     0 |   376 |     - |   989k |   0 |  20 |   8 |  65 |  78 | 27 |   0 |   0 | 1.291487e+02 | 1.790316e+02 |  38.62%| unknown
  1.2s|     1 |     0 |   377 |     - |   989k |   0 |  20 |   8 |  68 |  81 | 29 |   0 |   0 | 1.291487e+02 | 1.790316e+02 |  38.62%| unknown
  1.2s|     1 |     0 |   378 |     - |   989k |   0 |  20 |   8 |  70 |  83 | 31 |   0 |   0 | 1.291487e+02 | 1.790316e+02 |  38.62%| unknown
  1.2s|     1 |     2 |   378 |     - |   989k |   0 |  20 |   8 |  70 |  83 | 33 |   0 |   0 | 1.291487e+02 | 1.790316e+02 |  38.62%| unknown

SCIP Status        : problem is solved [optimal solution found]
Solving Time (sec) : 1.17
Solving Nodes      : 7 (total of 8 nodes in 2 runs)
Primal Bound       : +1.79031563718784e+02 (2 solutions)
Dual Bound         : +1.79031563718784e+02
Gap                : 0.00 %
primal_bound = 179.03156371878418, dual_bound = 179.03156371878418, gap = 0.0, time = 4.18
